0, 0
11, 2
34, 6
5, 46
34, 3
38, 48
38, 31
38, 34
4, 7
16, 26
42, 29
8, 20
6, 43
43, 4
34, 43
29, 49
31, 49
21, 26
3, 26
2, 27
27, 27
36, 27
40, 11
21, 40
45, 41
36, 0
49, 11
11, 19
1, 31
35, 18
8, 17
43, 16
6, 13
36, 44
1, 3
1, 9
19, 17
31, 39
27, 47
38, 8
7, 4
8, 0
5, 31
38, 4
32, 9
7, 21
9, 11
8, 25
35, 6
31, 45
4, 13
